SystemName       Graphene
SystemLabel      graphene
NumberOfAtoms    2
NumberOfSpecies  1
LatticeConstant  1.0 Ang

%block LatticeVectors
  2.4941  0.00   0.00
  1.2471  2.16   0.00
  0.00    0.00  15.00
%endblock LatticeVectors

%block AtomicCoordinatesAndAtomicSpecies
  0.00    0.00   0.0   1
  1.44    0.00   0.0   1
%endblock AtomicCoordinatesAndAtomicSpecies

%block ChemicalSpeciesLabel
  1  6  C
%endblock ChemicalSpeciesLabel

MeshCutoff         200 Ry
PAO.BasisSize      DZP
XC.functional      GGA
XC.authors         PBE

%block kgrid_Monkhorst_Pack
  1 1 1 0
%endblock kgrid_Monkhorst_Pack

SolutionMethod     diagon
SaveBandStructure  .true.

BandLinesScale     pi
%block BandLines
  4
  0.0  0.0  0.0  Gamma
  0.5  0.0  0.0  K
  0.5  0.5  0.0  M
  0.0  0.0  0.0  Gamma
%endblock BandLines
